webassembly/ejemplos_dzn/folder5_json_54.dzn
TERM = { '.', 'in_1', 'local_1', 'in_6', 'in_2', 'in_4', 'in_3', 's(0)', 'in_7', 'in_5', 'in_0'};
null = '.';
s = 5;
n = 13;
ndeps = 3;
max_registers_sz = 4;
NR = 1;
registers = [|'local_1', 'in_3'|];
dependencies = [|'call[function_index(0)]_0', 'i32.load_2', |'i32.load_2', 'call[function_index(0)]_3', |'call[function_index(0)]_3', 'i32.store8_4'|];
GET_ENUM = { GET1, GET2, GET3, GET4, GET5};
SET_ENUM = { SET1, SET2, SET3, SET4, SET5};
TEE_ENUM = { TEE1, TEE2, TEE3, TEE4, TEE5};
N = 4;
OP = { 'call[function_index(0)]_0', 'call[function_index(0)]_3', 'i32.load_2', 'i32.store8_4' };
in_ops = [3, 3, 1, 2 ];
out_ops = [0, 0, 1, 0 ];
in1 = ['in_0', 's(0)', 'in_3', 'in_6' ];
in2 = ['in_1', 'in_4', '.', 'in_7' ];
in3 = ['in_2', 'in_5', '.', '.' ];
out1 = ['.', '.', 's(0)', '.' ];
out2 = ['.', '.', '.', '.' ];
out3 = ['.', '.', '.', '.' ];
comm = [false, false, false, false ];
gas = [1, 1, 1, 1 ];
sz = [1, 1, 1, 1 ];
stor = [true, true, false, true ];
lb = [ 1, 1, 1, 1 ];
ub = [ 5, 5, 5, 5 ];
startstack = [ 'in_0', 'in_1', 'in_2', 'in_3', 'in_4', 'in_5', 'in_6', 'in_7', null, null, null, null, null ];
endstack = [ null, null, null, null, null, null, null, null, null, null, null, null, null ];
