webassembly/ejemplos_results/5/folder5_json_54.txt
value = 5;
fgas = [1, 1, 1, 1, 1];
fsize = [1, 1, 1, 1, 1];
states = 
[|   in_0, in_1, in_2, in_3, in_4, in_5, in_6, in_7, '.', '.', '.', '.', '.'
 |   in_3, in_4, in_5, in_6, in_7,  '.',  '.',  '.', '.', '.', '.', '.', '.'
 | 's(0)', in_4, in_5, in_6, in_7,  '.',  '.',  '.', '.', '.', '.', '.', '.'
 |   in_6, in_7, in_0,  '.',  '.',  '.',  '.',  '.', '.', '.', '.', '.', '.'
 |   in_3,  '.',  '.',  '.',  '.',  '.',  '.',  '.', '.', '.', '.', '.', '.'
 |    '.',  '.',  '.',  '.',  '.',  '.',  '.',  '.', '.', '.', '.', '.', '.'
 |];
register_states = 
[| local_1, '.', '.', '.', '.'
 | local_1, '.', '.', '.', '.'
 | local_1, '.', '.', '.', '.'
 | local_1, '.', '.', '.', '.'
 | local_1, '.', '.', '.', '.'
 |    in_3, '.', '.', '.', '.'
 |];
program = [O('call[function_index(0)]_0'), O('i32.load_2'), O('call[function_index(0)]_3'), O('i32.store8_4'), S(SET1)];
% time elapsed: 0.09 s
----------
==========
% time elapsed: 0.09 s
% [value > 4]
